c CNF file generated from BLIF2CNF script.
c Original BLIF file was blif/alu1.blif
p cnf 39 87
-1 -6 0
6 1  0
-6 5 0
-2 -7 0
-3 -7 0
7 2 3  0
-7 5 0
2 -8 0
-4 -8 0
8 -2 4  0
-8 5 0
-5 6 7 8  0
-9 -12 0
12 9  0
-12 11 0
-10 -13 0
-3 -13 0
13 10 3  0
-13 11 0
10 -14 0
-4 -14 0
14 -10 4  0
-14 11 0
-11 12 13 14  0
-15 -18 0
18 15  0
-18 17 0
-16 -19 0
-3 -19 0
19 16 3  0
-19 17 0
16 -20 0
-4 -20 0
20 -16 4  0
-20 17 0
-17 18 19 20  0
-21 -24 0
24 21  0
-24 23 0
-22 -25 0
-3 -25 0
25 22 3  0
-25 23 0
22 -26 0
-4 -26 0
26 -22 4  0
-26 23 0
-23 24 25 26  0
-1 -30 0
2 -30 0
-27 -30 0
30 1 -2 27  0
-30 29 0
-1 -31 0
-2 -31 0
-28 -31 0
31 1 2 28  0
-31 29 0
-29 30 31  0
-9 -33 0
10 -33 0
-27 -33 0
33 9 -10 27  0
-33 32 0
-9 -34 0
-10 -34 0
-28 -34 0
34 9 10 28  0
-34 32 0
-32 33 34  0
-15 -36 0
16 -36 0
-27 -36 0
36 15 -16 27  0
-36 35 0
-15 -37 0
-16 -37 0
-28 -37 0
37 15 16 28  0
-37 35 0
-35 36 37  0
-21 -39 0
22 -39 0
-27 -39 0
39 21 -22 27  0
-39 38 0
-38 39  0
